local_stuff/loop_inv_stuff/loop_inv_backup/repo/z3/5.out
STDOUT:
sat
(
  (define-fun inv ((x!0 Int) (x!1 Int) (x!2 Int) (x!3 Int)) Bool
    (or (<= x!0 0) (<= (+ x!2 (* (- 1) x!3)) 0)))
)


STDERR:
